\ LP format - for model browsing. Use MPS format to capture full model detail.
\ Signature: 0x7aa185f224e58598
Minimize
  Cmax
Subject To
 assign_0_0: y_0_0_0 = 1
 proc_time_0_0: Ps_0_0 - 17 y_0_0_0 = 0
 assign_0_1: y_0_0_1 + y_1_0_1 = 1
 proc_time_0_1: Ps_0_1 - 40 y_0_0_1 - 130 y_1_0_1 = 0
 assign_0_2: y_1_0_2 + y_2_0_2 = 1
 proc_time_0_2: Ps_0_2 - 50 y_1_0_2 - 60 y_2_0_2 = 0
 seq_0_0_to_1: t_0_0 + Ps_0_0 - t_0_1 <= 0
 seq_0_1_to_2: t_0_1 + Ps_0_1 - t_0_2 <= 0
 assign_1_0: y_0_1_0 = 1
 proc_time_1_0: Ps_1_0 - 30 y_0_1_0 = 0
 assign_1_1: y_0_1_1 + y_1_1_1 = 1
 proc_time_1_1: Ps_1_1 - 150 y_0_1_1 - 160 y_1_1_1 = 0
 assign_1_2: y_2_1_2 = 1
 proc_time_1_2: Ps_1_2 - 70 y_2_1_2 = 0
 seq_1_0_to_1: t_1_0 + Ps_1_0 - t_1_1 <= 0
 seq_1_1_to_2: t_1_1 + Ps_1_1 - t_1_2 <= 0
 assign_2_0: y_0_2_0 + y_1_2_0 = 1
 proc_time_2_0: Ps_2_0 - 50 y_0_2_0 - 60 y_1_2_0 = 0
 assign_2_1: y_1_2_1 + y_2_2_1 = 1
 proc_time_2_1: Ps_2_1 - 170 y_1_2_1 - 180 y_2_2_1 = 0
 assign_2_2: y_1_2_2 + y_2_2_2 = 1
 proc_time_2_2: Ps_2_2 - 90 y_1_2_2 - 100 y_2_2_2 = 0
 seq_2_0_to_1: t_2_0 + Ps_2_0 - t_2_1 <= 0
 seq_2_1_to_2: t_2_1 + Ps_2_1 - t_2_2 <= 0
 no_overlap1_0_0_0_0_1: t_0_0 + Ps_0_0 + 2422 y_0_0_0 - t_0_1
   + 2422 y_0_0_1 + 2422 z_0_0_0_0_1 <= 7266
 no_overlap2_0_0_0_0_1: - t_0_0 + 2422 y_0_0_0 + t_0_1 + Ps_0_1
   + 2422 y_0_0_1 - 2422 z_0_0_0_0_1 <= 4844
 no_overlap1_0_0_0_1_0: t_0_0 + Ps_0_0 + 2422 y_0_0_0 - t_1_0
   + 2422 y_0_1_0 + 2422 z_0_0_0_1_0 <= 7266
 no_overlap2_0_0_0_1_0: - t_0_0 + 2422 y_0_0_0 + t_1_0 + Ps_1_0
   + 2422 y_0_1_0 - 2422 z_0_0_0_1_0 <= 4844
 no_overlap1_0_0_0_1_1: t_0_0 + Ps_0_0 + 2422 y_0_0_0 - t_1_1
   + 2422 y_0_1_1 + 2422 z_0_0_0_1_1 <= 7266
 no_overlap2_0_0_0_1_1: - t_0_0 + 2422 y_0_0_0 + t_1_1 + Ps_1_1
   + 2422 y_0_1_1 - 2422 z_0_0_0_1_1 <= 4844
 no_overlap1_0_0_0_2_0: t_0_0 + Ps_0_0 + 2422 y_0_0_0 - t_2_0
   + 2422 y_0_2_0 + 2422 z_0_0_0_2_0 <= 7266
 no_overlap2_0_0_0_2_0: - t_0_0 + 2422 y_0_0_0 + t_2_0 + Ps_2_0
   + 2422 y_0_2_0 - 2422 z_0_0_0_2_0 <= 4844
 no_overlap1_0_0_1_1_0: t_0_1 + Ps_0_1 + 2422 y_0_0_1 - t_1_0
   + 2422 y_0_1_0 + 2422 z_0_0_1_1_0 <= 7266
 no_overlap2_0_0_1_1_0: - t_0_1 + 2422 y_0_0_1 + t_1_0 + Ps_1_0
   + 2422 y_0_1_0 - 2422 z_0_0_1_1_0 <= 4844
 no_overlap1_0_0_1_1_1: t_0_1 + Ps_0_1 + 2422 y_0_0_1 - t_1_1
   + 2422 y_0_1_1 + 2422 z_0_0_1_1_1 <= 7266
 no_overlap2_0_0_1_1_1: - t_0_1 + 2422 y_0_0_1 + t_1_1 + Ps_1_1
   + 2422 y_0_1_1 - 2422 z_0_0_1_1_1 <= 4844
 no_overlap1_0_0_1_2_0: t_0_1 + Ps_0_1 + 2422 y_0_0_1 - t_2_0
   + 2422 y_0_2_0 + 2422 z_0_0_1_2_0 <= 7266
 no_overlap2_0_0_1_2_0: - t_0_1 + 2422 y_0_0_1 + t_2_0 + Ps_2_0
   + 2422 y_0_2_0 - 2422 z_0_0_1_2_0 <= 4844
 no_overlap1_0_1_0_1_1: t_1_0 + Ps_1_0 + 2422 y_0_1_0 - t_1_1
   + 2422 y_0_1_1 + 2422 z_0_1_0_1_1 <= 7266
 no_overlap2_0_1_0_1_1: - t_1_0 + 2422 y_0_1_0 + t_1_1 + Ps_1_1
   + 2422 y_0_1_1 - 2422 z_0_1_0_1_1 <= 4844
 no_overlap1_0_1_0_2_0: t_1_0 + Ps_1_0 + 2422 y_0_1_0 - t_2_0
   + 2422 y_0_2_0 + 2422 z_0_1_0_2_0 <= 7266
 no_overlap2_0_1_0_2_0: - t_1_0 + 2422 y_0_1_0 + t_2_0 + Ps_2_0
   + 2422 y_0_2_0 - 2422 z_0_1_0_2_0 <= 4844
 no_overlap1_0_1_1_2_0: t_1_1 + Ps_1_1 + 2422 y_0_1_1 - t_2_0
   + 2422 y_0_2_0 + 2422 z_0_1_1_2_0 <= 7266
 no_overlap2_0_1_1_2_0: - t_1_1 + 2422 y_0_1_1 + t_2_0 + Ps_2_0
   + 2422 y_0_2_0 - 2422 z_0_1_1_2_0 <= 4844
 no_overlap1_1_0_1_0_2: t_0_1 + Ps_0_1 + 2422 y_1_0_1 - t_0_2
   + 2422 y_1_0_2 + 2422 z_1_0_1_0_2 <= 7266
 no_overlap2_1_0_1_0_2: - t_0_1 + 2422 y_1_0_1 + t_0_2 + Ps_0_2
   + 2422 y_1_0_2 - 2422 z_1_0_1_0_2 <= 4844
 no_overlap1_1_0_1_1_1: t_0_1 + Ps_0_1 + 2422 y_1_0_1 - t_1_1
   + 2422 y_1_1_1 + 2422 z_1_0_1_1_1 <= 7266
 no_overlap2_1_0_1_1_1: - t_0_1 + 2422 y_1_0_1 + t_1_1 + Ps_1_1
   + 2422 y_1_1_1 - 2422 z_1_0_1_1_1 <= 4844
 no_overlap1_1_0_1_2_0: t_0_1 + Ps_0_1 + 2422 y_1_0_1 - t_2_0
   + 2422 y_1_2_0 + 2422 z_1_0_1_2_0 <= 7266
 no_overlap2_1_0_1_2_0: - t_0_1 + 2422 y_1_0_1 + t_2_0 + Ps_2_0
   + 2422 y_1_2_0 - 2422 z_1_0_1_2_0 <= 4844
 no_overlap1_1_0_1_2_1: t_0_1 + Ps_0_1 + 2422 y_1_0_1 - t_2_1
   + 2422 y_1_2_1 + 2422 z_1_0_1_2_1 <= 7266
 no_overlap2_1_0_1_2_1: - t_0_1 + 2422 y_1_0_1 + t_2_1 + Ps_2_1
   + 2422 y_1_2_1 - 2422 z_1_0_1_2_1 <= 4844
 no_overlap1_1_0_1_2_2: t_0_1 + Ps_0_1 + 2422 y_1_0_1 - t_2_2
   + 2422 y_1_2_2 + 2422 z_1_0_1_2_2 <= 7266
 no_overlap2_1_0_1_2_2: - t_0_1 + 2422 y_1_0_1 + t_2_2 + Ps_2_2
   + 2422 y_1_2_2 - 2422 z_1_0_1_2_2 <= 4844
 no_overlap1_1_0_2_1_1: t_0_2 + Ps_0_2 + 2422 y_1_0_2 - t_1_1
   + 2422 y_1_1_1 + 2422 z_1_0_2_1_1 <= 7266
 no_overlap2_1_0_2_1_1: - t_0_2 + 2422 y_1_0_2 + t_1_1 + Ps_1_1
   + 2422 y_1_1_1 - 2422 z_1_0_2_1_1 <= 4844
 no_overlap1_1_0_2_2_0: t_0_2 + Ps_0_2 + 2422 y_1_0_2 - t_2_0
   + 2422 y_1_2_0 + 2422 z_1_0_2_2_0 <= 7266
 no_overlap2_1_0_2_2_0: - t_0_2 + 2422 y_1_0_2 + t_2_0 + Ps_2_0
   + 2422 y_1_2_0 - 2422 z_1_0_2_2_0 <= 4844
 no_overlap1_1_0_2_2_1: t_0_2 + Ps_0_2 + 2422 y_1_0_2 - t_2_1
   + 2422 y_1_2_1 + 2422 z_1_0_2_2_1 <= 7266
 no_overlap2_1_0_2_2_1: - t_0_2 + 2422 y_1_0_2 + t_2_1 + Ps_2_1
   + 2422 y_1_2_1 - 2422 z_1_0_2_2_1 <= 4844
 no_overlap1_1_0_2_2_2: t_0_2 + Ps_0_2 + 2422 y_1_0_2 - t_2_2
   + 2422 y_1_2_2 + 2422 z_1_0_2_2_2 <= 7266
 no_overlap2_1_0_2_2_2: - t_0_2 + 2422 y_1_0_2 + t_2_2 + Ps_2_2
   + 2422 y_1_2_2 - 2422 z_1_0_2_2_2 <= 4844
 no_overlap1_1_1_1_2_0: t_1_1 + Ps_1_1 + 2422 y_1_1_1 - t_2_0
   + 2422 y_1_2_0 + 2422 z_1_1_1_2_0 <= 7266
 no_overlap2_1_1_1_2_0: - t_1_1 + 2422 y_1_1_1 + t_2_0 + Ps_2_0
   + 2422 y_1_2_0 - 2422 z_1_1_1_2_0 <= 4844
 no_overlap1_1_1_1_2_1: t_1_1 + Ps_1_1 + 2422 y_1_1_1 - t_2_1
   + 2422 y_1_2_1 + 2422 z_1_1_1_2_1 <= 7266
 no_overlap2_1_1_1_2_1: - t_1_1 + 2422 y_1_1_1 + t_2_1 + Ps_2_1
   + 2422 y_1_2_1 - 2422 z_1_1_1_2_1 <= 4844
 no_overlap1_1_1_1_2_2: t_1_1 + Ps_1_1 + 2422 y_1_1_1 - t_2_2
   + 2422 y_1_2_2 + 2422 z_1_1_1_2_2 <= 7266
 no_overlap2_1_1_1_2_2: - t_1_1 + 2422 y_1_1_1 + t_2_2 + Ps_2_2
   + 2422 y_1_2_2 - 2422 z_1_1_1_2_2 <= 4844
 no_overlap1_1_2_0_2_1: t_2_0 + Ps_2_0 + 2422 y_1_2_0 - t_2_1
   + 2422 y_1_2_1 + 2422 z_1_2_0_2_1 <= 7266
 no_overlap2_1_2_0_2_1: - t_2_0 + 2422 y_1_2_0 + t_2_1 + Ps_2_1
   + 2422 y_1_2_1 - 2422 z_1_2_0_2_1 <= 4844
 no_overlap1_1_2_0_2_2: t_2_0 + Ps_2_0 + 2422 y_1_2_0 - t_2_2
   + 2422 y_1_2_2 + 2422 z_1_2_0_2_2 <= 7266
 no_overlap2_1_2_0_2_2: - t_2_0 + 2422 y_1_2_0 + t_2_2 + Ps_2_2
   + 2422 y_1_2_2 - 2422 z_1_2_0_2_2 <= 4844
 no_overlap1_1_2_1_2_2: t_2_1 + Ps_2_1 + 2422 y_1_2_1 - t_2_2
   + 2422 y_1_2_2 + 2422 z_1_2_1_2_2 <= 7266
 no_overlap2_1_2_1_2_2: - t_2_1 + 2422 y_1_2_1 + t_2_2 + Ps_2_2
   + 2422 y_1_2_2 - 2422 z_1_2_1_2_2 <= 4844
 no_overlap1_2_0_2_1_2: t_0_2 + Ps_0_2 + 2422 y_2_0_2 - t_1_2
   + 2422 y_2_1_2 + 2422 z_2_0_2_1_2 <= 7266
 no_overlap2_2_0_2_1_2: - t_0_2 + 2422 y_2_0_2 + t_1_2 + Ps_1_2
   + 2422 y_2_1_2 - 2422 z_2_0_2_1_2 <= 4844
 no_overlap1_2_0_2_2_1: t_0_2 + Ps_0_2 + 2422 y_2_0_2 - t_2_1
   + 2422 y_2_2_1 + 2422 z_2_0_2_2_1 <= 7266
 no_overlap2_2_0_2_2_1: - t_0_2 + 2422 y_2_0_2 + t_2_1 + Ps_2_1
   + 2422 y_2_2_1 - 2422 z_2_0_2_2_1 <= 4844
 no_overlap1_2_0_2_2_2: t_0_2 + Ps_0_2 + 2422 y_2_0_2 - t_2_2
   + 2422 y_2_2_2 + 2422 z_2_0_2_2_2 <= 7266
 no_overlap2_2_0_2_2_2: - t_0_2 + 2422 y_2_0_2 + t_2_2 + Ps_2_2
   + 2422 y_2_2_2 - 2422 z_2_0_2_2_2 <= 4844
 no_overlap1_2_1_2_2_1: t_1_2 + Ps_1_2 + 2422 y_2_1_2 - t_2_1
   + 2422 y_2_2_1 + 2422 z_2_1_2_2_1 <= 7266
 no_overlap2_2_1_2_2_1: - t_1_2 + 2422 y_2_1_2 + t_2_1 + Ps_2_1
   + 2422 y_2_2_1 - 2422 z_2_1_2_2_1 <= 4844
 no_overlap1_2_1_2_2_2: t_1_2 + Ps_1_2 + 2422 y_2_1_2 - t_2_2
   + 2422 y_2_2_2 + 2422 z_2_1_2_2_2 <= 7266
 no_overlap2_2_1_2_2_2: - t_1_2 + 2422 y_2_1_2 + t_2_2 + Ps_2_2
   + 2422 y_2_2_2 - 2422 z_2_1_2_2_2 <= 4844
 no_overlap1_2_2_1_2_2: t_2_1 + Ps_2_1 + 2422 y_2_2_1 - t_2_2
   + 2422 y_2_2_2 + 2422 z_2_2_1_2_2 <= 7266
 no_overlap2_2_2_1_2_2: - t_2_1 + 2422 y_2_2_1 + t_2_2 + Ps_2_2
   + 2422 y_2_2_2 - 2422 z_2_2_1_2_2 <= 4844
 cmax_job_0: Cmax - t_0_2 - Ps_0_2 >= 0
 cmax_job_1: Cmax - t_1_2 - Ps_1_2 >= 0
 cmax_job_2: Cmax - t_2_2 - Ps_2_2 >= 0
Bounds
Binaries
 y_0_0_0 y_0_0_1 y_1_0_1 y_1_0_2 y_2_0_2 y_0_1_0 y_0_1_1 y_1_1_1 y_2_1_2
 y_0_2_0 y_1_2_0 y_1_2_1 y_2_2_1 y_1_2_2 y_2_2_2 z_0_0_0_0_1 z_0_0_0_1_0
 z_0_0_0_1_1 z_0_0_0_2_0 z_0_0_1_1_0 z_0_0_1_1_1 z_0_0_1_2_0 z_0_1_0_1_1
 z_0_1_0_2_0 z_0_1_1_2_0 z_1_0_1_0_2 z_1_0_1_1_1 z_1_0_1_2_0 z_1_0_1_2_1
 z_1_0_1_2_2 z_1_0_2_1_1 z_1_0_2_2_0 z_1_0_2_2_1 z_1_0_2_2_2 z_1_1_1_2_0
 z_1_1_1_2_1 z_1_1_1_2_2 z_1_2_0_2_1 z_1_2_0_2_2 z_1_2_1_2_2 z_2_0_2_1_2
 z_2_0_2_2_1 z_2_0_2_2_2 z_2_1_2_2_1 z_2_1_2_2_2 z_2_2_1_2_2
End
